84
0 71 82 75 18 38 63 66 56 1 
45 25 70 29 20 17 33 11 39 73 
12 53 81 59 31 52 34 8 55 78 
43 30 44 76 50 28 6 21 72 67 
14 2 9 51 58 22 10 65 13 74 
15 40 24 60 26 83 62 46 47 7 
68 48 57 27 79 61 5 37 80 16 
49 42 19 32 4 77 54 41 36 64 
3 69 23 35 
